100 10
265 557
652 545
313 142
55 686
582 570
392 434
365 484
612 248
652 460
555 421
521 644
500 541
705 695
494 509
186 444
871 279
483 633
626 905
434 899
224 590
264 333
376 252
143 339
561 191
773 223
193 396
505 484
239 345
537 590
791 491
473 374
509 530
454 617
728 691
556 850
593 472
592 275
629 794
568 414
268 615
556 468
300 571
154 596
832 798
206 300
481 780
335 205
469 415
291 360
438 865
85 757
436 320
239 456
327 435
421 401
382 565
305 405
593 913
324 522
545 779
357 467
423 133
535 407
373 649
205 522
761 673
660 386
241 472
480 631
645 204
563 918
320 223
660 556
576 743
497 293
148 534
699 488
357 474
677 692
416 531
139 413
620 527
329 639
945 432
609 500
417 501
903 498
460 522
432 549
599 311
424 394
821 529
405 461
383 561
513 625
362 154
568 451
616 346
326 362
334 131
